words_hard_train/6361.qaiger
aag 141 16 0 1 125
2
4
8
12
16
24
32
46
98
128
138
168
178
210
220
250
282
6 3 5
10 6 9
14 11 12
18 14 16
20 15 17
22 19 21
26 5 25
28 4 24
30 27 29
34 31 33
36 34 3
38 30 32
40 38 2
42 37 41
44 41 29
48 9 47
50 8 46
52 49 51
54 44 53
56 45 52
58 55 57
60 42 58
62 43 59
64 61 63
66 7 12
68 67 9
70 66 8
72 69 71
74 2 12
76 75 4
78 74 5
80 77 79
82 81 39
84 83 35
86 85 37
88 72 86
90 65 89
92 73 87
94 91 93
96 57 51
100 17 99
102 16 98
104 101 103
106 96 105
108 97 104
110 107 109
112 63 110
114 62 111
116 113 115
118 94 116
120 23 119
122 95 117
124 121 123
126 21 12
130 126 128
132 127 129
134 131 133
136 109 103
140 129 139
142 128 138
144 141 143
146 136 145
148 137 144
150 147 149
152 115 150
154 114 151
156 153 155
158 134 156
160 125 159
162 135 157
164 161 163
166 133 12
170 167 169
172 166 168
174 171 173
176 149 143
180 169 179
182 168 178
184 181 183
186 176 185
188 177 184
190 187 189
192 155 190
194 154 191
196 193 195
198 174 196
200 165 199
202 175 197
204 201 203
206 168 12
208 207 167
212 209 210
214 208 211
216 213 215
218 189 183
222 211 221
224 210 220
226 223 225
228 218 227
230 219 226
232 229 231
234 195 232
236 194 233
238 235 237
240 216 238
242 205 241
244 217 239
246 243 245
248 246 236
252 12 250
254 13 251
256 253 255
258 231 225
260 256 259
262 257 258
264 261 263
266 214 12
268 264 267
270 249 269
272 247 237
274 265 266
276 273 275
278 270 277
280 248 268
282 279 281
i0 2 y1[0]
i1 2 y1[1]
i2 2 y1[2]
i3 2 y1[7]
i4 2 y1[3]
i5 1 x1[1]
i6 1 x1[0]
i7 1 x1[2]
i8 1 x1[3]
i9 2 y1[4]
i10 1 x1[4]
i11 2 y1[5]
i12 1 x1[5]
i13 2 y1[6]
i14 1 x1[6]
i15 1 x1[7]
o0 bv[0]
c
simplified
  <=
    add
      2 y1
      or
        1 x1
        1 x1
    abs
      2 y1
