words_hard_train/6361.qaiger.qdimacs
p cnf 141 376
a 69 12 110 16 49 23 89 125 0
e 1 2 3 4 5 6 7 8 9 10 11 13 14 15 17 18 19 20 21 22 24 25 26 27 28 29 30 31 32 33 34 35 36 37 38 39 40 41 42 43 44 45 46 47 48 50 51 52 53 54 55 56 57 58 59 60 61 62 63 64 65 66 67 68 70 71 72 73 74 75 76 77 78 79 80 81 82 83 84 85 86 87 88 90 91 92 93 94 95 96 97 98 99 100 101 102 103 104 105 106 107 108 109 111 112 113 114 115 116 117 118 119 120 121 122 123 124 126 127 128 129 130 131 132 133 134 135 136 137 138 139 140 141 0
1 2 3 0
-1 -3 0
-2 -3 0
-3 4 5 0
3 -5 0
-4 -5 0
5 -6 7 0
-5 -7 0
6 -7 0
-7 -8 9 0
7 -9 0
8 -9 0
7 8 10 0
-7 -10 0
-8 -10 0
9 10 11 0
-9 -11 0
-10 -11 0
2 12 13 0
-2 -13 0
-12 -13 0
-2 -12 14 0
2 -14 0
12 -14 0
13 14 15 0
-13 -15 0
-14 -15 0
15 16 17 0
-15 -17 0
-16 -17 0
-17 1 18 0
17 -18 0
-1 -18 0
-15 -16 19 0
15 -19 0
16 -19 0
-19 -1 20 0
19 -20 0
1 -20 0
18 20 21 0
-18 -21 0
-20 -21 0
20 14 22 0
-20 -22 0
-14 -22 0
4 23 24 0
-4 -24 0
-23 -24 0
-4 -23 25 0
4 -25 0
23 -25 0
24 25 26 0
-24 -26 0
-25 -26 0
-22 26 27 0
22 -27 0
-26 -27 0
22 -26 28 0
-22 -28 0
26 -28 0
27 28 29 0
-27 -29 0
-28 -29 0
-21 -29 30 0
21 -30 0
29 -30 0
21 29 31 0
-21 -31 0
-29 -31 0
30 31 32 0
-30 -32 0
-31 -32 0
3 -6 33 0
-3 -33 0
6 -33 0
33 4 34 0
-33 -34 0
-4 -34 0
-33 -4 35 0
33 -35 0
4 -35 0
34 35 36 0
-34 -36 0
-35 -36 0
-1 -6 37 0
1 -37 0
6 -37 0
37 -2 38 0
-37 -38 0
2 -38 0
-37 2 39 0
37 -39 0
-2 -39 0
38 39 40 0
-38 -40 0
-39 -40 0
40 19 41 0
-40 -41 0
-19 -41 0
41 17 42 0
-41 -42 0
-17 -42 0
42 18 43 0
-42 -43 0
-18 -43 0
-36 -43 44 0
36 -44 0
43 -44 0
32 44 45 0
-32 -45 0
-44 -45 0
36 43 46 0
-36 -46 0
-43 -46 0
45 46 47 0
-45 -47 0
-46 -47 0
28 25 48 0
-28 -48 0
-25 -48 0
8 49 50 0
-8 -50 0
-49 -50 0
-8 -49 51 0
8 -51 0
49 -51 0
50 51 52 0
-50 -52 0
-51 -52 0
-48 52 53 0
48 -53 0
-52 -53 0
48 -52 54 0
-48 -54 0
52 -54 0
53 54 55 0
-53 -55 0
-54 -55 0
31 -55 56 0
-31 -56 0
55 -56 0
-31 55 57 0
31 -57 0
-55 -57 0
56 57 58 0
-56 -58 0
-57 -58 0
-47 -58 59 0
47 -59 0
58 -59 0
11 59 60 0
-11 -60 0
-59 -60 0
47 58 61 0
-47 -61 0
-58 -61 0
60 61 62 0
-60 -62 0
-61 -62 0
10 -6 63 0
-10 -63 0
6 -63 0
-63 -64 65 0
63 -65 0
64 -65 0
63 64 66 0
-63 -66 0
-64 -66 0
65 66 67 0
-65 -67 0
-66 -67 0
54 51 68 0
-54 -68 0
-51 -68 0
64 69 70 0
-64 -70 0
-69 -70 0
-64 -69 71 0
64 -71 0
69 -71 0
70 71 72 0
-70 -72 0
-71 -72 0
-68 72 73 0
68 -73 0
-72 -73 0
68 -72 74 0
-68 -74 0
72 -74 0
73 74 75 0
-73 -75 0
-74 -75 0
57 -75 76 0
-57 -76 0
75 -76 0
-57 75 77 0
57 -77 0
-75 -77 0
76 77 78 0
-76 -78 0
-77 -78 0
-67 -78 79 0
67 -79 0
78 -79 0
62 79 80 0
-62 -80 0
-79 -80 0
67 78 81 0
-67 -81 0
-78 -81 0
80 81 82 0
-80 -82 0
-81 -82 0
66 -6 83 0
-66 -83 0
6 -83 0
83 84 85 0
-83 -85 0
-84 -85 0
-83 -84 86 0
83 -86 0
84 -86 0
85 86 87 0
-85 -87 0
-86 -87 0
74 71 88 0
-74 -88 0
-71 -88 0
84 89 90 0
-84 -90 0
-89 -90 0
-84 -89 91 0
84 -91 0
89 -91 0
90 91 92 0
-90 -92 0
-91 -92 0
-88 92 93 0
88 -93 0
-92 -93 0
88 -92 94 0
-88 -94 0
92 -94 0
93 94 95 0
-93 -95 0
-94 -95 0
77 -95 96 0
-77 -96 0
95 -96 0
-77 95 97 0
77 -97 0
-95 -97 0
96 97 98 0
-96 -98 0
-97 -98 0
-87 -98 99 0
87 -99 0
98 -99 0
82 99 100 0
-82 -100 0
-99 -100 0
87 98 101 0
-87 -101 0
-98 -101 0
100 101 102 0
-100 -102 0
-101 -102 0
-84 -6 103 0
84 -103 0
6 -103 0
103 83 104 0
-103 -104 0
-83 -104 0
104 -105 106 0
-104 -106 0
105 -106 0
-104 105 107 0
104 -107 0
-105 -107 0
106 107 108 0
-106 -108 0
-107 -108 0
94 91 109 0
-94 -109 0
-91 -109 0
105 110 111 0
-105 -111 0
-110 -111 0
-105 -110 112 0
105 -112 0
110 -112 0
111 112 113 0
-111 -113 0
-112 -113 0
-109 113 114 0
109 -114 0
-113 -114 0
109 -113 115 0
-109 -115 0
113 -115 0
114 115 116 0
-114 -116 0
-115 -116 0
97 -116 117 0
-97 -117 0
116 -117 0
-97 116 118 0
97 -118 0
-116 -118 0
117 118 119 0
-117 -119 0
-118 -119 0
-108 -119 120 0
108 -120 0
119 -120 0
102 120 121 0
-102 -121 0
-120 -121 0
108 119 122 0
-108 -122 0
-119 -122 0
121 122 123 0
-121 -123 0
-122 -123 0
-123 -118 124 0
123 -124 0
118 -124 0
-6 -125 126 0
6 -126 0
125 -126 0
6 125 127 0
-6 -127 0
-125 -127 0
126 127 128 0
-126 -128 0
-127 -128 0
115 112 129 0
-115 -129 0
-112 -129 0
-128 129 130 0
128 -130 0
-129 -130 0
128 -129 131 0
-128 -131 0
129 -131 0
130 131 132 0
-130 -132 0
-131 -132 0
-107 -6 133 0
107 -133 0
6 -133 0
-132 133 134 0
132 -134 0
-133 -134 0
124 134 135 0
-124 -135 0
-134 -135 0
123 118 136 0
-123 -136 0
-118 -136 0
132 -133 137 0
-132 -137 0
133 -137 0
136 137 138 0
-136 -138 0
-137 -138 0
-135 138 139 0
135 -139 0
-138 -139 0
-124 -134 140 0
124 -140 0
134 -140 0
139 140 141 0
-139 -141 0
-140 -141 0
141 0
